NAME : n60w200.001.526.tour
COMMENT : Length = 526
COMMENT : Found by LKH [Keld Helsgaun] Tue May  2 05:47:35 2017
TYPE : TOUR
DIMENSION : 61
TOUR_SECTION
1
7
51
44
58
18
2
20
52
37
48
30
39
59
38
6
47
27
46
13
40
57
19
21
31
16
45
49
35
29
55
41
24
42
9
17
8
32
25
43
23
14
53
33
15
56
34
28
60
5
36
22
12
3
10
26
11
61
54
50
4
-1
EOF
